41 119
2 4 5 13 15 28 40
10 28 35 40
0 22
8 17
0 6 9 13 14 18 27 31 33
0 13 20 32 33
4 11 15 16 20 28 31
8 11 12 14 16 18 19 21 38
3 7 23 31 36 37
4 14 16 17 38
1 11 12 21 22 23 24 31 38
6 7 10 40
7 10 18 23 27 32 40
0 4 5 19 25
4 7 9 29
0 6 39
6 7 9 18 19 25 26 27 28 32
3 9
4 7 12 16 20 22 25 30 33 39
7 13 16 31 34 38
5 6 18 27 34 36 37
7 10 26 30
2 10 18 25 27 36
8 10 12 29 39
10 32 34
13 16 18 22 26 31 37
16 21 25 28 29 34
4 12 16 20 22 34 35 36
0 1 6 16 26 31 33
14 23 26 32
18 21 32 34 35 37
4 6 8 10 19 25 28 33 37
5 12 16 24 29 30 36
4 5 18 28 31 36 40
19 20 24 26 27 30
1 27 30
8 20 22 27 32 33
8 20 25 30 31 40
7 9 10 19 39
15 18 23 38
0 1 11 12 33 37
